(synth-fun lemma ((x Int) (y Int) (nil Int)) Bool
           ((Start Bool) (S (Set Int)) (I Int) (Loc Int))

           ((Start Bool (
                  (=> Start Start)
                  (<= I I)
                  (member Loc S)
           (S (Set Int) (
              (htree Loc)))
           (I Int (
              (key Loc)))
           (Loc Int (x y nil)))
)

(synth-fun rswitch () Int
           ((Start Int))
           ((Start Int (0)))
)
